RAW/D/fspd/SCA8-7.vrpspd_seed-6.out
1051.2786	13.166	20.245
