RAW/D/fspd/SCA8-7.vrpspd_seed-6.sol
Route #1: 28 5 16 40
Route #2: 27 22 37 30 44 38 47
Route #3: 25 11 14 12 4 3
Route #4: 20 50 33 31 46 1 29
Route #5: 42 2 49 43 26
Route #6: 34 19 7 41 48
Route #7: 17 23 10 39 35 21 18
Route #8: 24 13 15 8 45
Route #9: 9 36 6 32
Cost 10512786.000000